# @file          min_edge_dominating_set.mod
# @author      Veronika Karpenko 20070875
# @brief        Implementation of the minimum edge dominating set problem

param n := 8;

param : E : c :=
1 2 1
2 3 1 
3 4 1 
4 5 1 
5 6 1
6 7 1 
8 1 1 
7 8 1 
# undirected arcs are treated as two directed arcs
2 1 1 
3 2 1 
4 3 1 
5 4 1 
6 5 1 
7 6 1 
1 8 1 
8 7 1 
;

end;